15.0 19.0 0
1.0 49.0 1
87.0 25.0 14
69.0 65.0 15
93.0 91.0 11
33.0 31.0 18
71.0 61.0 2
29.0 9.0 22
93.0 7.0 7
55.0 47.0 18
23.0 13.0 23
19.0 47.0 12
57.0 63.0 21
5.0 95.0 2
65.0 43.0 14
69.0 1.0 9
3.0 25.0 10
19.0 91.0 4
21.0 81.0 19
67.0 91.0 2
41.0 23.0 20
19.0 75.0 15
15.0 79.0 11
79.0 47.0 6
19.0 65.0 13
27.0 49.0 19
29.0 17.0 13
25.0 65.0 8
59.0 51.0 15
27.0 95.0 18
21.0 91.0 11
61.0 83.0 21
15.0 83.0 12
31.0 87.0 2
71.0 41.0 23
91.0 21.0 11
